20 47 111
1 6 1
1 10 5
1 11 2
1 15 1
1 19 1
2 7 2
2 8 2
2 11 2
3 7 3
4 5 1
4 6 2
4 7 1
4 8 2
4 9 2
4 13 1
4 16 4
4 19 4
5 6 1
5 8 2
5 17 1
5 18 4
5 20 3
6 16 5
6 18 3
7 14 5
7 20 1
8 10 1
8 11 3
8 14 5
8 16 3
8 17 4
9 10 3
9 11 1
9 13 5
9 15 4
10 17 2
11 12 4
11 16 4
11 17 4
11 19 1
12 20 4
13 16 3
13 17 1
13 19 1
16 18 4
16 20 4
17 20 5
